p tdp 56 109
42 56
8 27
23 40
29 30
28 36
5 20
11 15
10 14
3 41
42 44
19 51
27 37
6 31
31 41
31 32
18 21
43 45
13 35
38 46
4 35
19 43
9 10
12 25
28 52
10 22
1 53
2 54
26 55
7 48
18 47
18 48
34 40
15 50
24 38
13 27
18 36
2 47
23 56
7 56
30 33
17 24
16 53
28 39
15 45
30 49
5 46
29 34
20 55
1 4
26 31
41 49
7 25
10 43
4 20
21 50
3 21
3 39
11 40
39 46
8 53
37 54
3 17
11 39
29 50
12 48
37 47
36 43
3 53
32 35
45 53
2 11
24 40
21 25
15 38
6 32
6 9
5 17
36 42
7 54
8 38
24 46
34 54
19 36
28 33
8 50
16 35
9 38
30 45
5 34
28 34
37 41
32 54
25 56
50 56
29 37
14 15
15 44
51 54
7 51
11 41
17 48
8 17
30 31
5 56
11 44
1 22
4 27
6 20
8 36
